9485346 3966373 734 686
9486074 3966637 735 687
9486164 3966232 765 688
9485896 3966548 703 689
9486196 3966648 735 690
9485870 3966785 719 691
9485054 3965777 687 692
9486056 3966328 672 693
9485708 3965004 687 694
9484092 3965996 704 695
9485976 3966588 671 696
9484992 3966496 750 697
9485622 3966261 704 698
9484322 3965961 718 699
9484448 3965724 735 700
9485362 3966381 703 701
9486046 3966573 703 702
9486006 3966853 734 703
9485420 3966160 703 704
9485614 3966657 719 705
9485820 3965660 703 706
9486188 3966244 719 707
9485630 3966665 688 708
9485630 3966665 734 709
9485886 3966643 719 710
9486274 3966037 703 711
9485340 3965820 703 712
9486300 3966600 656 713
9486332 3965066 719 714
9485928 3965864 703 715
